\* Single_vehicle_scheduling *\
Minimize
Total_Charging_costs: 12.26 Power_0 + 12.02 Power_1 + 21.08 Power_10
 + 24 Power_11 + 26 Power_12 + 28.4 Power_13 + 28.8 Power_14 + 26.4 Power_15
 + 14.36 Power_16 + 12.96 Power_17 + 12.8 Power_18 + 10 Power_19
 + 11.6 Power_2 + 11.8 Power_20 + 10.4 Power_21 + 8.66 Power_22 + 8.8 Power_23
 + 8.68 Power_24 + 8.68 Power_25 + 8.68 Power_26 + 10 Power_27 + 10.2 Power_28
 + 9.6 Power_29 + 11.36 Power_3 + 9.92 Power_30 + 9.92 Power_31 + 9.6 Power_32
 + 9.2 Power_33 + 9.2 Power_34 + 9.2 Power_35 + 9.4 Power_36 + 10 Power_37
 + 11.4 Power_38 + 10.8 Power_39 + 8.96 Power_4 + 9.6 Power_40 + 12.8 Power_41
 + 12.8 Power_42 + 12.6 Power_43 + 13.2 Power_44 + 12 Power_45 + 12.2 Power_46
 + 11.2 Power_47 + 8.76 Power_5 + 8.78 Power_6 + 8.76 Power_7 + 8.68 Power_8
 + 8.96 Power_9
Subject To
Required_SOC: Power_0 + Power_1 + Power_10 + Power_11 + Power_12 + Power_13
 + Power_14 + Power_15 + Power_16 + Power_17 + Power_18 + Power_19 + Power_2
 + Power_20 + Power_21 + Power_22 + Power_23 + Power_24 + Power_25 + Power_26
 + Power_27 + Power_28 + Power_29 + Power_3 + Power_30 + Power_31 + Power_32
 + Power_33 + Power_34 + Power_35 + Power_36 + Power_37 + Power_38 + Power_39
 + Power_4 + Power_40 + Power_41 + Power_42 + Power_43 + Power_44 + Power_45
 + Power_46 + Power_47 + Power_5 + Power_6 + Power_7 + Power_8 + Power_9
 = 25.3491345983
Bounds
Power_0 <= 3.5
Power_1 <= 3.5
Power_10 <= 3.5
Power_11 <= 3.5
Power_12 <= 3.5
Power_13 <= 3.5
Power_14 <= 3.5
Power_15 <= 3.5
Power_16 <= 3.5
Power_17 <= 3.5
Power_18 <= 3.5
Power_19 <= 3.5
Power_2 <= 3.5
Power_20 <= 3.5
Power_21 <= 3.5
Power_22 <= 3.5
Power_23 <= 3.5
Power_24 <= 3.5
Power_25 <= 3.5
Power_26 <= 3.5
Power_27 <= 3.5
Power_28 <= 3.5
Power_29 <= 3.5
Power_3 <= 3.5
Power_30 <= 3.5
Power_31 <= 3.5
Power_32 <= 3.5
Power_33 <= 3.5
Power_34 <= 3.5
Power_35 <= 3.5
Power_36 <= 3.5
Power_37 <= 3.5
Power_38 <= 3.5
Power_39 <= 3.5
Power_4 <= 3.5
Power_40 <= 3.5
Power_41 <= 3.5
Power_42 <= 3.5
Power_43 <= 3.5
Power_44 <= 3.5
Power_45 <= 3.5
Power_46 <= 3.5
Power_47 <= 3.5
Power_5 <= 3.5
Power_6 <= 3.5
Power_7 <= 3.5
Power_8 <= 3.5
Power_9 <= 3.5
End
